Optimal - objective value 18432.00000000
      0 F                  18432                       1
      1 m_1_2                  1                       0
      3 m_1_3                  1                       0
      5 m_1_5                  1                       0
      7 m_1_6                  1                       0
      9 m_1_9                  1                       0
     11 m_1_4                  1                       0
     13 m_1_8                  1                       0
     15 m_1_7                  1                       0
     17 m_1_10                 1                       0
     20 m_3_2                  1                       0
     21 m_2_5                  1                       0
     24 m_6_2                  1                       0
     25 m_2_9                  1                       0
     27 m_2_4                  1                       0
     29 m_2_8                  1                       0
     31 m_2_7                  1                       0
     33 m_2_10                 1                       0
     35 m_3_5                  1                       0
     38 m_6_3                  1                       0
     39 m_3_9                  1                       0
     41 m_3_4                  1                       0
     43 m_3_8                  1                       0
     45 m_3_7                  1                       0
     47 m_3_10                 1                       0
     50 m_6_5                  1                       0
     51 m_5_9                  1                       0
     53 m_5_4                  1                       0
     55 m_5_8                  1                       0
     57 m_5_7                  1                       0
     59 m_5_10                 1                       0
     61 m_6_9                  1                       0
     63 m_6_4                  1                       0
     65 m_6_8                  1                       0
     67 m_6_7                  1                       0
     69 m_6_10                 1                       0
     71 m_9_4                  1                       0
     73 m_9_8                  1                       0
     75 m_9_7                  1                       0
     77 m_9_10                 1                       0
     80 m_8_4                  1                       0
     81 m_4_7                  1                       0
     83 m_4_10                 1                       0
     85 m_8_7                  1                       0
     87 m_8_10                 1                       0
     90 m_10_7                 1                       0
     91 s_1                    1                       0
     92 m_1_1                  1                       0
     93 s_2                    4                       0
     94 m_2_2                  1                       0
     95 s_3                    3                       0
     96 m_3_3                  1                       0
     97 s_5                    5                       0
     98 m_5_5                  1                       0
     99 s_6                    2                       0
    100 m_6_6                  1                       0
    101 s_9                    6                       0
    102 m_9_9                  1                       0
    103 s_4                    8                       0
    104 m_4_4                  1                       0
    105 s_8                    7                       0
    106 m_8_8                  1                       0
    107 s_7                   10                       0
    108 m_7_7                  1                       0
    109 s_10                   9                       0
    110 m_10_10                1                       0
    111 y_1_1                  1                       0
    121 y_1_2                  1                       0
    122 y_2_2                  1                       0
    123 y_3_2                  1                       0
    131 y_1_3                  1                       0
    133 y_3_3                  1                       0
    141 y_1_5                  1                       0
    142 y_2_5                  1                       0
    143 y_3_5                  1                       0
    144 y_5_5                  1                       0
    151 y_1_6                  1                       0
    155 y_6_6                  1                       0
    162 y_2_9                  1                       0
    163 y_3_9                  1                       0
    164 y_5_9                  1                       0
    166 y_9_9                  1                       0
    173 y_3_4                  1                       0
    177 y_4_4                  1                       0
    183 y_3_8                  1                       0
    184 y_5_8                  1                       0
    188 y_8_8                  1                       0
    197 y_4_7                  1                       0
    199 y_7_7                  1                       0
    207 y_4_10                 1                       0
    210 y_10_10                1                       0
